78 80
2 34 1
2 11 1
24 30 1
16 31 1
11 31 1
16 28 1
16 29 1
6 18 1
29 28 1
35 29 1
19 8 1
26 29 1
3 31 1
18 34 1
7 33 1
26 1 1
35 27 1
8 4 1
34 7 1
3 23 1
29 11 1
26 16 1
25 20 1
34 21 1
2 26 1
31 20 1
23 33 2
33 4 1
22 21 1
33 12 1
14 18 1
33 25 1
26 28 1
14 35 1
28 30 1
4 11 1
34 18 1
7 3 1
2 31 1
3 4 1
6 13 1
20 18 1
27 27 1
25 24 1
21 7 1
35 17 1
28 3 1
8 33 1
28 8 1
16 19 1
14 26 1
6 2 1
23 2 1
4 21 1
3 33 1
15 22 1
14 19 1
19 31 1
27 9 2
9 18 1
20 31 1
23 19 1
6 33 1
3 24 1
22 23 1
11 2 1
3 17 1
5 28 1
1 8 1
23 12 1
8 35 1
10 16 1
30 10 1
4 26 1
15 8 1
2 21 1
17 4 1
24 10 1
40 40 
40 40 
40 40 
40 40 
40 40 
40 40 
40 40 
40 40 
40 40 
40 40 
40 40 
40 40 
40 40 
40 40 
40 40 
40 40 
40 40 
40 40 
40 40 
40 40 
40 40 
40 40 
40 40 
40 40 
40 40 
40 40 
40 40 
40 40 
40 40 
40 40 
40 40 
40 40 
40 40 
40 40 
40 40 
40 40 
40 40 
40 40 
40 40 
40 40 
40 40 
40 40 
40 40 
40 40 
40 40 
40 40 
40 40 
40 40 
40 40 
40 40 
40 40 
40 40 
40 40 
40 40 
40 40 
40 40 
40 40 
40 40 
40 40 
40 40 
40 40 
40 40 
40 40 
40 40 
40 40 
40 40 
40 40 
40 40 
40 40 
40 40 
40 40 
40 40 
40 40 
40 40 
40 40 
40 40 
40 40 
40 40 
40 40 
40 40 
